p cnf 65 995
4 7 11 16 22 29 37 46 56 67 79 92 106 0
8 12 17 23 30 38 47 57 68 80 93 107 122 0
13 18 24 31 39 48 58 69 81 94 108 123 139 0
19 25 32 40 49 59 70 82 95 109 124 140 157 0
26 33 41 50 60 71 83 96 110 125 141 158 176 0
-4 -8 0
-7 -12 0
-11 -17 0
-16 -23 0
-22 -30 0
-29 -38 0
-37 -47 0
-46 -57 0
-56 -68 0
-67 -80 0
-79 -93 0
-92 -107 0
-106 -122 0
-4 -13 0
-7 -18 0
-11 -24 0
-16 -31 0
-22 -39 0
-29 -48 0
-37 -58 0
-46 -69 0
-56 -81 0
-67 -94 0
-79 -108 0
-92 -123 0
-106 -139 0
-4 -19 0
-7 -25 0
-11 -32 0
-16 -40 0
-22 -49 0
-29 -59 0
-37 -70 0
-46 -82 0
-56 -95 0
-67 -109 0
-79 -124 0
-92 -140 0
-106 -157 0
-4 -26 0
-7 -33 0
-11 -41 0
-16 -50 0
-22 -60 0
-29 -71 0
-37 -83 0
-46 -96 0
-56 -110 0
-67 -125 0
-79 -141 0
-92 -158 0
-106 -176 0
-8 -13 0
-12 -18 0
-17 -24 0
-23 -31 0
-30 -39 0
-38 -48 0
-47 -58 0
-57 -69 0
-68 -81 0
-80 -94 0
-93 -108 0
-107 -123 0
-122 -139 0
-8 -19 0
-12 -25 0
-17 -32 0
-23 -40 0
-30 -49 0
-38 -59 0
-47 -70 0
-57 -82 0
-68 -95 0
-80 -109 0
-93 -124 0
-107 -140 0
-122 -157 0
-8 -26 0
-12 -33 0
-17 -41 0
-23 -50 0
-30 -60 0
-38 -71 0
-47 -83 0
-57 -96 0
-68 -110 0
-80 -125 0
-93 -141 0
-107 -158 0
-122 -176 0
-13 -19 0
-18 -25 0
-24 -32 0
-31 -40 0
-39 -49 0
-48 -59 0
-58 -70 0
-69 -82 0
-81 -95 0
-94 -109 0
-108 -124 0
-123 -140 0
-139 -157 0
-13 -26 0
-18 -33 0
-24 -41 0
-31 -50 0
-39 -60 0
-48 -71 0
-58 -83 0
-69 -96 0
-81 -110 0
-94 -125 0
-108 -141 0
-123 -158 0
-139 -176 0
-19 -26 0
-25 -33 0
-32 -41 0
-40 -50 0
-49 -60 0
-59 -71 0
-70 -83 0
-82 -96 0
-95 -110 0
-109 -125 0
-124 -141 0
-140 -158 0
-157 -176 0
-4 -12 0
-4 -17 0
-4 -38 0
-4 -68 0
-4 -93 0
-4 -122 0
-7 -17 0
-7 -23 0
-7 -38 0
-7 -47 0
-7 -57 0
-7 -68 0
-7 -80 0
-7 -93 0
-11 -23 0
-11 -47 0
-11 -68 0
-11 -80 0
-11 -93 0
-16 -30 0
-16 -80 0
-22 -38 0
-22 -57 0
-22 -80 0
-29 -47 0
-29 -57 0
-29 -68 0
-29 -80 0
-37 -57 0
-37 -68 0
-37 -80 0
-37 -93 0
-37 -107 0
-46 -68 0
-46 -80 0
-46 -93 0
-46 -107 0
-46 -122 0
-56 -80 0
-56 -93 0
-56 -107 0
-67 -122 0
-79 -122 0
-4 -18 0
-4 -24 0
-4 -48 0
-4 -81 0
-4 -108 0
-4 -139 0
-7 -24 0
-7 -31 0
-7 -48 0
-7 -58 0
-7 -69 0
-7 -81 0
-7 -94 0
-7 -108 0
-11 -31 0
-11 -58 0
-11 -81 0
-11 -94 0
-11 -108 0
-16 -39 0
-16 -94 0
-22 -48 0
-22 -69 0
-22 -94 0
-29 -58 0
-29 -69 0
-29 -81 0
-29 -94 0
-37 -69 0
-37 -81 0
-37 -94 0
-37 -108 0
-37 -123 0
-46 -81 0
-46 -94 0
-46 -108 0
-46 -123 0
-46 -139 0
-56 -94 0
-56 -108 0
-56 -123 0
-67 -139 0
-79 -139 0
-4 -25 0
-4 -32 0
-4 -59 0
-4 -95 0
-4 -124 0
-4 -157 0
-7 -32 0
-7 -40 0
-7 -59 0
-7 -70 0
-7 -82 0
-7 -95 0
-7 -109 0
-7 -124 0
-11 -40 0
-11 -70 0
-11 -95 0
-11 -109 0
-11 -124 0
-16 -49 0
-16 -109 0
-22 -59 0
-22 -82 0
-22 -109 0
-29 -70 0
-29 -82 0
-29 -95 0
-29 -109 0
-37 -82 0
-37 -95 0
-37 -109 0
-37 -124 0
-37 -140 0
-46 -95 0
-46 -109 0
-46 -124 0
-46 -140 0
-46 -157 0
-56 -109 0
-56 -124 0
-56 -140 0
-67 -157 0
-79 -157 0
-4 -33 0
-4 -41 0
-4 -71 0
-4 -110 0
-4 -141 0
-4 -176 0
-7 -41 0
-7 -50 0
-7 -71 0
-7 -83 0
-7 -96 0
-7 -110 0
-7 -125 0
-7 -141 0
-11 -50 0
-11 -83 0
-11 -110 0
-11 -125 0
-11 -141 0
-16 -60 0
-16 -125 0
-22 -71 0
-22 -96 0
-22 -125 0
-29 -83 0
-29 -96 0
-29 -110 0
-29 -125 0
-37 -96 0
-37 -110 0
-37 -125 0
-37 -141 0
-37 -158 0
-46 -110 0
-46 -125 0
-46 -141 0
-46 -158 0
-46 -176 0
-56 -125 0
-56 -141 0
-56 -158 0
-67 -176 0
-79 -176 0
-8 -7 0
-8 -11 0
-8 -29 0
-8 -56 0
-8 -79 0
-8 -106 0
-12 -11 0
-12 -16 0
-12 -29 0
-12 -37 0
-12 -46 0
-12 -56 0
-12 -67 0
-12 -79 0
-17 -16 0
-17 -37 0
-17 -56 0
-17 -67 0
-17 -79 0
-23 -22 0
-23 -67 0
-30 -29 0
-30 -46 0
-30 -67 0
-38 -37 0
-38 -46 0
-38 -56 0
-38 -67 0
-47 -46 0
-47 -56 0
-47 -67 0
-47 -79 0
-47 -92 0
-57 -56 0
-57 -67 0
-57 -79 0
-57 -92 0
-57 -106 0
-68 -67 0
-68 -79 0
-68 -92 0
-80 -106 0
-93 -106 0
-8 -18 0
-8 -24 0
-8 -48 0
-8 -81 0
-8 -108 0
-8 -139 0
-12 -24 0
-12 -31 0
-12 -48 0
-12 -58 0
-12 -69 0
-12 -81 0
-12 -94 0
-12 -108 0
-17 -31 0
-17 -58 0
-17 -81 0
-17 -94 0
-17 -108 0
-23 -39 0
-23 -94 0
-30 -48 0
-30 -69 0
-30 -94 0
-38 -58 0
-38 -69 0
-38 -81 0
-38 -94 0
-47 -69 0
-47 -81 0
-47 -94 0
-47 -108 0
-47 -123 0
-57 -81 0
-57 -94 0
-57 -108 0
-57 -123 0
-57 -139 0
-68 -94 0
-68 -108 0
-68 -123 0
-80 -139 0
-93 -139 0
-8 -25 0
-8 -32 0
-8 -59 0
-8 -95 0
-8 -124 0
-8 -157 0
-12 -32 0
-12 -40 0
-12 -59 0
-12 -70 0
-12 -82 0
-12 -95 0
-12 -109 0
-12 -124 0
-17 -40 0
-17 -70 0
-17 -95 0
-17 -109 0
-17 -124 0
-23 -49 0
-23 -109 0
-30 -59 0
-30 -82 0
-30 -109 0
-38 -70 0
-38 -82 0
-38 -95 0
-38 -109 0
-47 -82 0
-47 -95 0
-47 -109 0
-47 -124 0
-47 -140 0
-57 -95 0
-57 -109 0
-57 -124 0
-57 -140 0
-57 -157 0
-68 -109 0
-68 -124 0
-68 -140 0
-80 -157 0
-93 -157 0
-8 -33 0
-8 -41 0
-8 -71 0
-8 -110 0
-8 -141 0
-8 -176 0
-12 -41 0
-12 -50 0
-12 -71 0
-12 -83 0
-12 -96 0
-12 -110 0
-12 -125 0
-12 -141 0
-17 -50 0
-17 -83 0
-17 -110 0
-17 -125 0
-17 -141 0
-23 -60 0
-23 -125 0
-30 -71 0
-30 -96 0
-30 -125 0
-38 -83 0
-38 -96 0
-38 -110 0
-38 -125 0
-47 -96 0
-47 -110 0
-47 -125 0
-47 -141 0
-47 -158 0
-57 -110 0
-57 -125 0
-57 -141 0
-57 -158 0
-57 -176 0
-68 -125 0
-68 -141 0
-68 -158 0
-80 -176 0
-93 -176 0
-13 -7 0
-13 -11 0
-13 -29 0
-13 -56 0
-13 -79 0
-13 -106 0
-18 -11 0
-18 -16 0
-18 -29 0
-18 -37 0
-18 -46 0
-18 -56 0
-18 -67 0
-18 -79 0
-24 -16 0
-24 -37 0
-24 -56 0
-24 -67 0
-24 -79 0
-31 -22 0
-31 -67 0
-39 -29 0
-39 -46 0
-39 -67 0
-48 -37 0
-48 -46 0
-48 -56 0
-48 -67 0
-58 -46 0
-58 -56 0
-58 -67 0
-58 -79 0
-58 -92 0
-69 -56 0
-69 -67 0
-69 -79 0
-69 -92 0
-69 -106 0
-81 -67 0
-81 -79 0
-81 -92 0
-94 -106 0
-108 -106 0
-13 -12 0
-13 -17 0
-13 -38 0
-13 -68 0
-13 -93 0
-13 -122 0
-18 -17 0
-18 -23 0
-18 -38 0
-18 -47 0
-18 -57 0
-18 -68 0
-18 -80 0
-18 -93 0
-24 -23 0
-24 -47 0
-24 -68 0
-24 -80 0
-24 -93 0
-31 -30 0
-31 -80 0
-39 -38 0
-39 -57 0
-39 -80 0
-48 -47 0
-48 -57 0
-48 -68 0
-48 -80 0
-58 -57 0
-58 -68 0
-58 -80 0
-58 -93 0
-58 -107 0
-69 -68 0
-69 -80 0
-69 -93 0
-69 -107 0
-69 -122 0
-81 -80 0
-81 -93 0
-81 -107 0
-94 -122 0
-108 -122 0
-13 -25 0
-13 -32 0
-13 -59 0
-13 -95 0
-13 -124 0
-13 -157 0
-18 -32 0
-18 -40 0
-18 -59 0
-18 -70 0
-18 -82 0
-18 -95 0
-18 -109 0
-18 -124 0
-24 -40 0
-24 -70 0
-24 -95 0
-24 -109 0
-24 -124 0
-31 -49 0
-31 -109 0
-39 -59 0
-39 -82 0
-39 -109 0
-48 -70 0
-48 -82 0
-48 -95 0
-48 -109 0
-58 -82 0
-58 -95 0
-58 -109 0
-58 -124 0
-58 -140 0
-69 -95 0
-69 -109 0
-69 -124 0
-69 -140 0
-69 -157 0
-81 -109 0
-81 -124 0
-81 -140 0
-94 -157 0
-108 -157 0
-13 -33 0
-13 -41 0
-13 -71 0
-13 -110 0
-13 -141 0
-13 -176 0
-18 -41 0
-18 -50 0
-18 -71 0
-18 -83 0
-18 -96 0
-18 -110 0
-18 -125 0
-18 -141 0
-24 -50 0
-24 -83 0
-24 -110 0
-24 -125 0
-24 -141 0
-31 -60 0
-31 -125 0
-39 -71 0
-39 -96 0
-39 -125 0
-48 -83 0
-48 -96 0
-48 -110 0
-48 -125 0
-58 -96 0
-58 -110 0
-58 -125 0
-58 -141 0
-58 -158 0
-69 -110 0
-69 -125 0
-69 -141 0
-69 -158 0
-69 -176 0
-81 -125 0
-81 -141 0
-81 -158 0
-94 -176 0
-108 -176 0
-19 -7 0
-19 -11 0
-19 -29 0
-19 -56 0
-19 -79 0
-19 -106 0
-25 -11 0
-25 -16 0
-25 -29 0
-25 -37 0
-25 -46 0
-25 -56 0
-25 -67 0
-25 -79 0
-32 -16 0
-32 -37 0
-32 -56 0
-32 -67 0
-32 -79 0
-40 -22 0
-40 -67 0
-49 -29 0
-49 -46 0
-49 -67 0
-59 -37 0
-59 -46 0
-59 -56 0
-59 -67 0
-70 -46 0
-70 -56 0
-70 -67 0
-70 -79 0
-70 -92 0
-82 -56 0
-82 -67 0
-82 -79 0
-82 -92 0
-82 -106 0
-95 -67 0
-95 -79 0
-95 -92 0
-109 -106 0
-124 -106 0
-19 -12 0
-19 -17 0
-19 -38 0
-19 -68 0
-19 -93 0
-19 -122 0
-25 -17 0
-25 -23 0
-25 -38 0
-25 -47 0
-25 -57 0
-25 -68 0
-25 -80 0
-25 -93 0
-32 -23 0
-32 -47 0
-32 -68 0
-32 -80 0
-32 -93 0
-40 -30 0
-40 -80 0
-49 -38 0
-49 -57 0
-49 -80 0
-59 -47 0
-59 -57 0
-59 -68 0
-59 -80 0
-70 -57 0
-70 -68 0
-70 -80 0
-70 -93 0
-70 -107 0
-82 -68 0
-82 -80 0
-82 -93 0
-82 -107 0
-82 -122 0
-95 -80 0
-95 -93 0
-95 -107 0
-109 -122 0
-124 -122 0
-19 -18 0
-19 -24 0
-19 -48 0
-19 -81 0
-19 -108 0
-19 -139 0
-25 -24 0
-25 -31 0
-25 -48 0
-25 -58 0
-25 -69 0
-25 -81 0
-25 -94 0
-25 -108 0
-32 -31 0
-32 -58 0
-32 -81 0
-32 -94 0
-32 -108 0
-40 -39 0
-40 -94 0
-49 -48 0
-49 -69 0
-49 -94 0
-59 -58 0
-59 -69 0
-59 -81 0
-59 -94 0
-70 -69 0
-70 -81 0
-70 -94 0
-70 -108 0
-70 -123 0
-82 -81 0
-82 -94 0
-82 -108 0
-82 -123 0
-82 -139 0
-95 -94 0
-95 -108 0
-95 -123 0
-109 -139 0
-124 -139 0
-19 -33 0
-19 -41 0
-19 -71 0
-19 -110 0
-19 -141 0
-19 -176 0
-25 -41 0
-25 -50 0
-25 -71 0
-25 -83 0
-25 -96 0
-25 -110 0
-25 -125 0
-25 -141 0
-32 -50 0
-32 -83 0
-32 -110 0
-32 -125 0
-32 -141 0
-40 -60 0
-40 -125 0
-49 -71 0
-49 -96 0
-49 -125 0
-59 -83 0
-59 -96 0
-59 -110 0
-59 -125 0
-70 -96 0
-70 -110 0
-70 -125 0
-70 -141 0
-70 -158 0
-82 -110 0
-82 -125 0
-82 -141 0
-82 -158 0
-82 -176 0
-95 -125 0
-95 -141 0
-95 -158 0
-109 -176 0
-124 -176 0
-26 -7 0
-26 -11 0
-26 -29 0
-26 -56 0
-26 -79 0
-26 -106 0
-33 -11 0
-33 -16 0
-33 -29 0
-33 -37 0
-33 -46 0
-33 -56 0
-33 -67 0
-33 -79 0
-41 -16 0
-41 -37 0
-41 -56 0
-41 -67 0
-41 -79 0
-50 -22 0
-50 -67 0
-60 -29 0
-60 -46 0
-60 -67 0
-71 -37 0
-71 -46 0
-71 -56 0
-71 -67 0
-83 -46 0
-83 -56 0
-83 -67 0
-83 -79 0
-83 -92 0
-96 -56 0
-96 -67 0
-96 -79 0
-96 -92 0
-96 -106 0
-110 -67 0
-110 -79 0
-110 -92 0
-125 -106 0
-141 -106 0
-26 -12 0
-26 -17 0
-26 -38 0
-26 -68 0
-26 -93 0
-26 -122 0
-33 -17 0
-33 -23 0
-33 -38 0
-33 -47 0
-33 -57 0
-33 -68 0
-33 -80 0
-33 -93 0
-41 -23 0
-41 -47 0
-41 -68 0
-41 -80 0
-41 -93 0
-50 -30 0
-50 -80 0
-60 -38 0
-60 -57 0
-60 -80 0
-71 -47 0
-71 -57 0
-71 -68 0
-71 -80 0
-83 -57 0
-83 -68 0
-83 -80 0
-83 -93 0
-83 -107 0
-96 -68 0
-96 -80 0
-96 -93 0
-96 -107 0
-96 -122 0
-110 -80 0
-110 -93 0
-110 -107 0
-125 -122 0
-141 -122 0
-26 -18 0
-26 -24 0
-26 -48 0
-26 -81 0
-26 -108 0
-26 -139 0
-33 -24 0
-33 -31 0
-33 -48 0
-33 -58 0
-33 -69 0
-33 -81 0
-33 -94 0
-33 -108 0
-41 -31 0
-41 -58 0
-41 -81 0
-41 -94 0
-41 -108 0
-50 -39 0
-50 -94 0
-60 -48 0
-60 -69 0
-60 -94 0
-71 -58 0
-71 -69 0
-71 -81 0
-71 -94 0
-83 -69 0
-83 -81 0
-83 -94 0
-83 -108 0
-83 -123 0
-96 -81 0
-96 -94 0
-96 -108 0
-96 -123 0
-96 -139 0
-110 -94 0
-110 -108 0
-110 -123 0
-125 -139 0
-141 -139 0
-26 -25 0
-26 -32 0
-26 -59 0
-26 -95 0
-26 -124 0
-26 -157 0
-33 -32 0
-33 -40 0
-33 -59 0
-33 -70 0
-33 -82 0
-33 -95 0
-33 -109 0
-33 -124 0
-41 -40 0
-41 -70 0
-41 -95 0
-41 -109 0
-41 -124 0
-50 -49 0
-50 -109 0
-60 -59 0
-60 -82 0
-60 -109 0
-71 -70 0
-71 -82 0
-71 -95 0
-71 -109 0
-83 -82 0
-83 -95 0
-83 -109 0
-83 -124 0
-83 -140 0
-96 -95 0
-96 -109 0
-96 -124 0
-96 -140 0
-96 -157 0
-110 -109 0
-110 -124 0
-110 -140 0
-125 -157 0
-141 -157 0
